% File represents an instance of a Composite Structure problem to be solved by a CP framework
% Created on 2025-03-26 10:41:25.989
T = 58;
n = 16;
m = 24;
edges = [(1, 2),
(6, 5),
(10, 9),
(13, 14),
(3, 2),
(7, 6),
(10, 11),
(15, 14),
(3, 4),
(7, 8),
(12, 11),
(15, 16),
(5, 1),
(9, 5),
(13, 9),
(6, 2),
(10, 6),
(10, 14),
(7, 3),
(7, 11),
(15, 11),
(8, 4),
(12, 8),
(12, 16)];
counts = [|10, 12, 10, 16,
|10, 10, 10, 16,
|10, 10, 10, 18,
|8, 10, 8, 16,
|10, 12, 10, 18,
|10, 14, 10, 18,
|10, 14, 10, 20,
|8, 12, 8, 20,
|10, 14, 10, 20,
|10, 16, 10, 20,
|10, 12, 10, 20,
|10, 12, 10, 22,
|10, 14, 10, 24,
|10, 14, 10, 20,
|12, 14, 12, 20,
|10, 12, 10, 20|];
